\ENCODING=ISO-8859-1
\Problem name: IloCplex

Minimize
 obj: y
Subject To
 c1:   x1 <= 8
 c2:   y1 - y <= -4
 c3:   x2 + 9 r2 <= 10
 c4:   - y + y2 <= -11
 c5:   x3 + 3 r3 <= 8
 c6:   - y + y3 <= -7
 c7:   x4 + 9 r4 <= 10
 c8:   - y + y4 <= -11
 c9:   x5 + 22 r5 <= 11
 c10:  - y + y5 <= -23
 c11:  x6 + 7 r6 <= 10
 c12:  - y + y6 <= -9
 c13:  x7 + 22 r7 <= 11
 c14:  - y + y7 <= -23
 c15:  x8 + 6 r8 <= 9
 c16:  - y + y8 <= -9
 c17:  x9 + 16 r9 <= 11
 c18:  - y + y9 <= -17
 c19:  x10 + 9 r10 <= 10
 c20:  - y + y10 <= -11
 c21:  x1 - x2 - 24 p12 - 24 q12 <= -4
 c22:  y1 - y2 - 24 p12 + 24 q12 <= 20
 c23:  x1 - x2 - 9 r2 - 24 p12 + 24 q12 >= -22
 c24:  y1 + 9 r2 - y2 - 24 p12 - 24 q12 >= -37
 c25:  x1 - x3 - 24 p13 - 24 q13 <= -4
 c26:  y1 - y3 - 24 p13 + 24 q13 <= 20
 c27:  x1 - x3 - 3 r3 - 24 p13 + 24 q13 >= -20
 c28:  y1 + 3 r3 - y3 - 24 p13 - 24 q13 >= -41
 c29:  x1 - x4 - 24 p14 - 24 q14 <= -4
 c30:  y1 - y4 - 24 p14 + 24 q14 <= 20
 c31:  x1 - x4 - 9 r4 - 24 p14 + 24 q14 >= -22
 c32:  y1 + 9 r4 - y4 - 24 p14 - 24 q14 >= -37
 c33:  x1 - x5 - 24 p15 - 24 q15 <= -4
 c34:  y1 - y5 - 24 p15 + 24 q15 <= 20
 c35:  x1 - x5 - 22 r5 - 24 p15 + 24 q15 >= -23
 c36:  y1 + 22 r5 - y5 - 24 p15 - 24 q15 >= -25
 c37:  x1 - x6 - 24 p16 - 24 q16 <= -4
 c38:  y1 - y6 - 24 p16 + 24 q16 <= 20
 c39:  x1 - x6 - 7 r6 - 24 p16 + 24 q16 >= -22
 c40:  y1 + 7 r6 - y6 - 24 p16 - 24 q16 >= -39
 c41:  x1 - x7 - 24 p17 - 24 q17 <= -4
 c42:  y1 - y7 - 24 p17 + 24 q17 <= 20
 c43:  x1 - x7 - 22 r7 - 24 p17 + 24 q17 >= -23
 c44:  y1 + 22 r7 - y7 - 24 p17 - 24 q17 >= -25
 c45:  x1 - x8 - 24 p18 - 24 q18 <= -4
 c46:  y1 - y8 - 24 p18 + 24 q18 <= 20
 c47:  x1 - x8 - 6 r8 - 24 p18 + 24 q18 >= -21
 c48:  y1 + 6 r8 - y8 - 24 p18 - 24 q18 >= -39
 c49:  x1 - x9 - 24 p19 - 24 q19 <= -4
 c50:  y1 - y9 - 24 p19 + 24 q19 <= 20
 c51:  x1 - x9 - 16 r9 - 24 p19 + 24 q19 >= -23
 c52:  y1 + 16 r9 - y9 - 24 p19 - 24 q19 >= -31
 c53:  x1 - x10 - 24 p110 - 24 q110 <= -4
 c54:  y1 - y10 - 24 p110 + 24 q110 <= 20
 c55:  x1 - x10 - 9 r10 - 24 p110 + 24 q110 >= -22
 c56:  y1 + 9 r10 - y10 - 24 p110 - 24 q110 >= -37
 c57:  x2 + 9 r2 - x3 - 24 p23 - 24 q23 <= -2
 c58:  - 9 r2 + y2 - y3 - 24 p23 + 24 q23 <= 13
 c59:  x2 - x3 - 3 r3 - 24 p23 + 24 q23 >= -20
 c60:  y2 + 3 r3 - y3 - 24 p23 - 24 q23 >= -41
 c61:  x2 + 9 r2 - x4 - 24 p24 - 24 q24 <= -2
 c62:  - 9 r2 + y2 - y4 - 24 p24 + 24 q24 <= 13
 c63:  x2 - x4 - 9 r4 - 24 p24 + 24 q24 >= -22
 c64:  y2 + 9 r4 - y4 - 24 p24 - 24 q24 >= -37
 c65:  x2 + 9 r2 - x5 - 24 p25 - 24 q25 <= -2
 c66:  - 9 r2 + y2 - y5 - 24 p25 + 24 q25 <= 13
 c67:  x2 - x5 - 22 r5 - 24 p25 + 24 q25 >= -23
 c68:  y2 + 22 r5 - y5 - 24 p25 - 24 q25 >= -25
 c69:  x2 + 9 r2 - x6 - 24 p26 - 24 q26 <= -2
 c70:  - 9 r2 + y2 - y6 - 24 p26 + 24 q26 <= 13
 c71:  x2 - x6 - 7 r6 - 24 p26 + 24 q26 >= -22
 c72:  y2 + 7 r6 - y6 - 24 p26 - 24 q26 >= -39
 c73:  x2 + 9 r2 - x7 - 24 p27 - 24 q27 <= -2
 c74:  - 9 r2 + y2 - y7 - 24 p27 + 24 q27 <= 13
 c75:  x2 - x7 - 22 r7 - 24 p27 + 24 q27 >= -23
 c76:  y2 + 22 r7 - y7 - 24 p27 - 24 q27 >= -25
 c77:  x2 + 9 r2 - x8 - 24 p28 - 24 q28 <= -2
 c78:  - 9 r2 + y2 - y8 - 24 p28 + 24 q28 <= 13
 c79:  x2 - x8 - 6 r8 - 24 p28 + 24 q28 >= -21
 c80:  y2 + 6 r8 - y8 - 24 p28 - 24 q28 >= -39
 c81:  x2 + 9 r2 - x9 - 24 p29 - 24 q29 <= -2
 c82:  - 9 r2 + y2 - y9 - 24 p29 + 24 q29 <= 13
 c83:  x2 - x9 - 16 r9 - 24 p29 + 24 q29 >= -23
 c84:  y2 + 16 r9 - y9 - 24 p29 - 24 q29 >= -31
 c85:  x2 + 9 r2 - x10 - 24 p210 - 24 q210 <= -2
 c86:  - 9 r2 + y2 - y10 - 24 p210 + 24 q210 <= 13
 c87:  x2 - x10 - 9 r10 - 24 p210 + 24 q210 >= -22
 c88:  y2 + 9 r10 - y10 - 24 p210 - 24 q210 >= -37
 c89:  x3 + 3 r3 - x4 - 24 p34 - 24 q34 <= -4
 c90:  - 3 r3 + y3 - y4 - 24 p34 + 24 q34 <= 17
 c91:  x3 - x4 - 9 r4 - 24 p34 + 24 q34 >= -22
 c92:  y3 + 9 r4 - y4 - 24 p34 - 24 q34 >= -37
 c93:  x3 + 3 r3 - x5 - 24 p35 - 24 q35 <= -4
 c94:  - 3 r3 + y3 - y5 - 24 p35 + 24 q35 <= 17
 c95:  x3 - x5 - 22 r5 - 24 p35 + 24 q35 >= -23
 c96:  y3 + 22 r5 - y5 - 24 p35 - 24 q35 >= -25
 c97:  x3 + 3 r3 - x6 - 24 p36 - 24 q36 <= -4
 c98:  - 3 r3 + y3 - y6 - 24 p36 + 24 q36 <= 17
 c99:  x3 - x6 - 7 r6 - 24 p36 + 24 q36 >= -22
 c100: y3 + 7 r6 - y6 - 24 p36 - 24 q36 >= -39
 c101: x3 + 3 r3 - x7 - 24 p37 - 24 q37 <= -4
 c102: - 3 r3 + y3 - y7 - 24 p37 + 24 q37 <= 17
 c103: x3 - x7 - 22 r7 - 24 p37 + 24 q37 >= -23
 c104: y3 + 22 r7 - y7 - 24 p37 - 24 q37 >= -25
 c105: x3 + 3 r3 - x8 - 24 p38 - 24 q38 <= -4
 c106: - 3 r3 + y3 - y8 - 24 p38 + 24 q38 <= 17
 c107: x3 - x8 - 6 r8 - 24 p38 + 24 q38 >= -21
 c108: y3 + 6 r8 - y8 - 24 p38 - 24 q38 >= -39
 c109: x3 + 3 r3 - x9 - 24 p39 - 24 q39 <= -4
 c110: - 3 r3 + y3 - y9 - 24 p39 + 24 q39 <= 17
 c111: x3 - x9 - 16 r9 - 24 p39 + 24 q39 >= -23
 c112: y3 + 16 r9 - y9 - 24 p39 - 24 q39 >= -31
 c113: x3 + 3 r3 - x10 - 24 p310 - 24 q310 <= -4
 c114: - 3 r3 + y3 - y10 - 24 p310 + 24 q310 <= 17
 c115: x3 - x10 - 9 r10 - 24 p310 + 24 q310 >= -22
 c116: y3 + 9 r10 - y10 - 24 p310 - 24 q310 >= -37
 c117: x4 + 9 r4 - x5 - 24 p45 - 24 q45 <= -2
 c118: - 9 r4 + y4 - y5 - 24 p45 + 24 q45 <= 13
 c119: x4 - x5 - 22 r5 - 24 p45 + 24 q45 >= -23
 c120: y4 + 22 r5 - y5 - 24 p45 - 24 q45 >= -25
 c121: x4 + 9 r4 - x6 - 24 p46 - 24 q46 <= -2
 c122: - 9 r4 + y4 - y6 - 24 p46 + 24 q46 <= 13
 c123: x4 - x6 - 7 r6 - 24 p46 + 24 q46 >= -22
 c124: y4 + 7 r6 - y6 - 24 p46 - 24 q46 >= -39
 c125: x4 + 9 r4 - x7 - 24 p47 - 24 q47 <= -2
 c126: - 9 r4 + y4 - y7 - 24 p47 + 24 q47 <= 13
 c127: x4 - x7 - 22 r7 - 24 p47 + 24 q47 >= -23
 c128: y4 + 22 r7 - y7 - 24 p47 - 24 q47 >= -25
 c129: x4 + 9 r4 - x8 - 24 p48 - 24 q48 <= -2
 c130: - 9 r4 + y4 - y8 - 24 p48 + 24 q48 <= 13
 c131: x4 - x8 - 6 r8 - 24 p48 + 24 q48 >= -21
 c132: y4 + 6 r8 - y8 - 24 p48 - 24 q48 >= -39
 c133: x4 + 9 r4 - x9 - 24 p49 - 24 q49 <= -2
 c134: - 9 r4 + y4 - y9 - 24 p49 + 24 q49 <= 13
 c135: x4 - x9 - 16 r9 - 24 p49 + 24 q49 >= -23
 c136: y4 + 16 r9 - y9 - 24 p49 - 24 q49 >= -31
 c137: x4 + 9 r4 - x10 - 24 p410 - 24 q410 <= -2
 c138: - 9 r4 + y4 - y10 - 24 p410 + 24 q410 <= 13
 c139: x4 - x10 - 9 r10 - 24 p410 + 24 q410 >= -22
 c140: y4 + 9 r10 - y10 - 24 p410 - 24 q410 >= -37
 c141: x5 + 22 r5 - x6 - 24 p56 - 24 q56 <= -1
 c142: - 22 r5 + y5 - y6 - 24 p56 + 24 q56 <= 1
 c143: x5 - x6 - 7 r6 - 24 p56 + 24 q56 >= -22
 c144: y5 + 7 r6 - y6 - 24 p56 - 24 q56 >= -39
 c145: x5 + 22 r5 - x7 - 24 p57 - 24 q57 <= -1
 c146: - 22 r5 + y5 - y7 - 24 p57 + 24 q57 <= 1
 c147: x5 - x7 - 22 r7 - 24 p57 + 24 q57 >= -23
 c148: y5 + 22 r7 - y7 - 24 p57 - 24 q57 >= -25
 c149: x5 + 22 r5 - x8 - 24 p58 - 24 q58 <= -1
 c150: - 22 r5 + y5 - y8 - 24 p58 + 24 q58 <= 1
 c151: x5 - x8 - 6 r8 - 24 p58 + 24 q58 >= -21
 c152: y5 + 6 r8 - y8 - 24 p58 - 24 q58 >= -39
 c153: x5 + 22 r5 - x9 - 24 p59 - 24 q59 <= -1
 c154: - 22 r5 + y5 - y9 - 24 p59 + 24 q59 <= 1
 c155: x5 - x9 - 16 r9 - 24 p59 + 24 q59 >= -23
 c156: y5 + 16 r9 - y9 - 24 p59 - 24 q59 >= -31
 c157: x5 + 22 r5 - x10 - 24 p510 - 24 q510 <= -1
 c158: - 22 r5 + y5 - y10 - 24 p510 + 24 q510 <= 1
 c159: x5 - x10 - 9 r10 - 24 p510 + 24 q510 >= -22
 c160: y5 + 9 r10 - y10 - 24 p510 - 24 q510 >= -37
 c161: x6 + 7 r6 - x7 - 24 p67 - 24 q67 <= -2
 c162: - 7 r6 + y6 - y7 - 24 p67 + 24 q67 <= 15
 c163: x6 - x7 - 22 r7 - 24 p67 + 24 q67 >= -23
 c164: y6 + 22 r7 - y7 - 24 p67 - 24 q67 >= -25
 c165: x6 + 7 r6 - x8 - 24 p68 - 24 q68 <= -2
 c166: - 7 r6 + y6 - y8 - 24 p68 + 24 q68 <= 15
 c167: x6 - x8 - 6 r8 - 24 p68 + 24 q68 >= -21
 c168: y6 + 6 r8 - y8 - 24 p68 - 24 q68 >= -39
 c169: x6 + 7 r6 - x9 - 24 p69 - 24 q69 <= -2
 c170: - 7 r6 + y6 - y9 - 24 p69 + 24 q69 <= 15
 c171: x6 - x9 - 16 r9 - 24 p69 + 24 q69 >= -23
 c172: y6 + 16 r9 - y9 - 24 p69 - 24 q69 >= -31
 c173: x6 + 7 r6 - x10 - 24 p610 - 24 q610 <= -2
 c174: - 7 r6 + y6 - y10 - 24 p610 + 24 q610 <= 15
 c175: x6 - x10 - 9 r10 - 24 p610 + 24 q610 >= -22
 c176: y6 + 9 r10 - y10 - 24 p610 - 24 q610 >= -37
 c177: x7 + 22 r7 - x8 - 24 p78 - 24 q78 <= -1
 c178: - 22 r7 + y7 - y8 - 24 p78 + 24 q78 <= 1
 c179: x7 - x8 - 6 r8 - 24 p78 + 24 q78 >= -21
 c180: y7 + 6 r8 - y8 - 24 p78 - 24 q78 >= -39
 c181: x7 + 22 r7 - x9 - 24 p79 - 24 q79 <= -1
 c182: - 22 r7 + y7 - y9 - 24 p79 + 24 q79 <= 1
 c183: x7 - x9 - 16 r9 - 24 p79 + 24 q79 >= -23
 c184: y7 + 16 r9 - y9 - 24 p79 - 24 q79 >= -31
 c185: x7 + 22 r7 - x10 - 24 p710 - 24 q710 <= -1
 c186: - 22 r7 + y7 - y10 - 24 p710 + 24 q710 <= 1
 c187: x7 - x10 - 9 r10 - 24 p710 + 24 q710 >= -22
 c188: y7 + 9 r10 - y10 - 24 p710 - 24 q710 >= -37
 c189: x8 + 6 r8 - x9 - 24 p89 - 24 q89 <= -3
 c190: - 6 r8 + y8 - y9 - 24 p89 + 24 q89 <= 15
 c191: x8 - x9 - 16 r9 - 24 p89 + 24 q89 >= -23
 c192: y8 + 16 r9 - y9 - 24 p89 - 24 q89 >= -31
 c193: x8 + 6 r8 - x10 - 24 p810 - 24 q810 <= -3
 c194: - 6 r8 + y8 - y10 - 24 p810 + 24 q810 <= 15
 c195: x8 - x10 - 9 r10 - 24 p810 + 24 q810 >= -22
 c196: y8 + 9 r10 - y10 - 24 p810 - 24 q810 >= -37
 c197: x9 + 16 r9 - x10 - 24 p910 - 24 q910 <= -1
 c198: - 16 r9 + y9 - y10 - 24 p910 + 24 q910 <= 7
 c199: x9 - x10 - 9 r10 - 24 p910 + 24 q910 >= -22
 c200: y9 + 9 r10 - y10 - 24 p910 - 24 q910 >= -37
Bounds
      x1 >= 0
      y1 >= 0
      x2 >= 0
 0 <= r2 <= 1
      y2 >= 0
      x3 >= 0
 0 <= r3 <= 1
      y3 >= 0
      x4 >= 0
 0 <= r4 <= 1
      y4 >= 0
      x5 >= 0
 0 <= r5 <= 1
      y5 >= 0
      x6 >= 0
 0 <= r6 <= 1
      y6 >= 0
      x7 >= 0
 0 <= r7 <= 1
      y7 >= 0
      x8 >= 0
 0 <= r8 <= 1
      y8 >= 0
      x9 >= 0
 0 <= r9 <= 1
      y9 >= 0
      x10 >= 0
 0 <= r10 <= 1
      y10 >= 0
 0 <= p12 <= 1
 0 <= q12 <= 1
 0 <= p13 <= 1
 0 <= q13 <= 1
 0 <= p14 <= 1
 0 <= q14 <= 1
 0 <= p15 <= 1
 0 <= q15 <= 1
 0 <= p16 <= 1
 0 <= q16 <= 1
 0 <= p17 <= 1
 0 <= q17 <= 1
 0 <= p18 <= 1
 0 <= q18 <= 1
 0 <= p19 <= 1
 0 <= q19 <= 1
 0 <= p110 <= 1
 0 <= q110 <= 1
 0 <= p23 <= 1
 0 <= q23 <= 1
 0 <= p24 <= 1
 0 <= q24 <= 1
 0 <= p25 <= 1
 0 <= q25 <= 1
 0 <= p26 <= 1
 0 <= q26 <= 1
 0 <= p27 <= 1
 0 <= q27 <= 1
 0 <= p28 <= 1
 0 <= q28 <= 1
 0 <= p29 <= 1
 0 <= q29 <= 1
 0 <= p210 <= 1
 0 <= q210 <= 1
 0 <= p34 <= 1
 0 <= q34 <= 1
 0 <= p35 <= 1
 0 <= q35 <= 1
 0 <= p36 <= 1
 0 <= q36 <= 1
 0 <= p37 <= 1
 0 <= q37 <= 1
 0 <= p38 <= 1
 0 <= q38 <= 1
 0 <= p39 <= 1
 0 <= q39 <= 1
 0 <= p310 <= 1
 0 <= q310 <= 1
 0 <= p45 <= 1
 0 <= q45 <= 1
 0 <= p46 <= 1
 0 <= q46 <= 1
 0 <= p47 <= 1
 0 <= q47 <= 1
 0 <= p48 <= 1
 0 <= q48 <= 1
 0 <= p49 <= 1
 0 <= q49 <= 1
 0 <= p410 <= 1
 0 <= q410 <= 1
 0 <= p56 <= 1
 0 <= q56 <= 1
 0 <= p57 <= 1
 0 <= q57 <= 1
 0 <= p58 <= 1
 0 <= q58 <= 1
 0 <= p59 <= 1
 0 <= q59 <= 1
 0 <= p510 <= 1
 0 <= q510 <= 1
 0 <= p67 <= 1
 0 <= q67 <= 1
 0 <= p68 <= 1
 0 <= q68 <= 1
 0 <= p69 <= 1
 0 <= q69 <= 1
 0 <= p610 <= 1
 0 <= q610 <= 1
 0 <= p78 <= 1
 0 <= q78 <= 1
 0 <= p79 <= 1
 0 <= q79 <= 1
 0 <= p710 <= 1
 0 <= q710 <= 1
 0 <= p89 <= 1
 0 <= q89 <= 1
 0 <= p810 <= 1
 0 <= q810 <= 1
 0 <= p910 <= 1
 0 <= q910 <= 1
Binaries
 r2  r3  r4  r5  r6  r7  r8  r9  r10  p12  q12  p13  q13  p14  q14  p15  q15 
 p16  q16  p17  q17  p18  q18  p19  q19  p110  q110  p23  q23  p24  q24  p25 
 q25  p26  q26  p27  q27  p28  q28  p29  q29  p210  q210  p34  q34  p35  q35 
 p36  q36  p37  q37  p38  q38  p39  q39  p310  q310  p45  q45  p46  q46  p47 
 q47  p48  q48  p49  q49  p410  q410  p56  q56  p57  q57  p58  q58  p59  q59 
 p510  q510  p67  q67  p68  q68  p69  q69  p610  q610  p78  q78  p79  q79 
 p710  q710  p89  q89  p810  q810  p910  q910 
Generals
 x1  y1  x2  y2  x3  y3  x4  y4  x5  y5  x6  y6  x7  y7  x8  y8  x9  y9  x10 
 y10 
End
